% File represents an instance of a Composite Structure problem to be solved by a CP framework
% Created on 2025-03-26 10:42:06.777
T = 50;
n = 36;
m = 60;
edges = [(1, 2),
(7, 8),
(13, 14),
(19, 20),
(25, 26),
(31, 32),
(2, 3),
(8, 9),
(14, 15),
(21, 20),
(27, 26),
(33, 32),
(4, 3),
(10, 9),
(16, 15),
(22, 21),
(28, 27),
(34, 33),
(4, 5),
(10, 11),
(17, 16),
(23, 22),
(29, 28),
(35, 34),
(5, 6),
(12, 11),
(18, 17),
(24, 23),
(30, 29),
(36, 35),
(1, 7),
(7, 13),
(13, 19),
(19, 25),
(25, 31),
(2, 8),
(8, 14),
(14, 20),
(20, 26),
(26, 32),
(3, 9),
(9, 15),
(21, 15),
(21, 27),
(27, 33),
(4, 10),
(10, 16),
(22, 16),
(22, 28),
(28, 34),
(5, 11),
(11, 17),
(23, 17),
(23, 29),
(29, 35),
(12, 6),
(12, 18),
(24, 18),
(24, 30),
(30, 36)];
counts = [|12, 8, 12, 18,
|12, 4, 12, 16,
|12, 2, 12, 14,
|12, 8, 12, 14,
|12, 6, 12, 10,
|12, 4, 12, 10,
|12, 8, 12, 12,
|12, 4, 12, 10,
|12, 2, 12, 10,
|12, 6, 12, 10,
|12, 6, 12, 8,
|12, 6, 12, 14,
|12, 8, 12, 8,
|12, 4, 12, 8,
|10, 2, 10, 8,
|12, 2, 12, 8,
|12, 4, 12, 8,
|12, 4, 12, 14,
|10, 6, 10, 8,
|10, 4, 10, 6,
|12, 4, 12, 8,
|12, 4, 12, 10,
|12, 6, 12, 10,
|12, 8, 12, 14,
|8, 6, 8, 8,
|8, 4, 8, 6,
|10, 4, 10, 6,
|10, 4, 10, 10,
|10, 6, 10, 10,
|12, 6, 12, 10,
|8, 6, 8, 4,
|8, 2, 8, 2,
|8, 2, 8, 6,
|8, 2, 8, 10,
|8, 4, 8, 10,
|10, 4, 10, 10|];
